27863 39463 
29280 39301 
32364 38195 
31784 38593 
30180 39291 
32410 38168 
31830 38566 
31605 38615 
30389 39141 
33134 37586 
30511 39084 
30569 39041 
30710 38922 
33240 37497 
33407 37359 
30819 38836 
30698 38932 
30890 38822 
31019 38713 
